treewidth/data/DoubleStarSnark.gr
p tw 30 45
1 2
1 7
1 8
2 13
2 4
13 24
13 28
24 25
24 11
25 26
25 7
26 27
26 3
27 28
27 15
28 29
29 30
29 6
30 3
30 18
3 4
4 5
5 6
5 21
6 7
8 9
8 23
9 14
9 17
10 11
10 19
10 22
11 12
12 17
12 20
14 15
14 22
15 16
16 20
16 23
17 18
18 19
19 23
20 21
21 22
