treewidth/data/DoubleStarSnark.td
c width = 6, time = 0.155333
s td 18 7 30
b 1 8 11 15 21 24 27 30
b 2 4 6 8 21 24 27 30
b 3 1 4 6 8 24 27 30
b 4 1 4 6 24 27 28 30
b 5 1 2 4 13 24 28
b 6 6 28 29 30
b 7 1 4 6 24 25 27 30
b 8 3 4 25 26 27 30
b 9 1 6 7 25
b 10 4 5 6 21
b 11 8 11 15 17 19 21 30
b 12 8 11 15 17 19 21 22
b 13 8 9 14 15 17 22
b 14 10 11 19 22
b 15 8 11 15 16 17 19 21
b 16 11 12 16 17 20 21
b 17 8 16 19 23
b 18 17 18 19 30
4 5
4 6
3 4
7 8
7 9
3 7
2 3
2 10
1 2
12 13
12 14
11 12
15 16
15 17
11 15
11 18
1 11
